n = 21;
k = 2;
roles = [
{m, f},
{d, g},
{f, g},
{d, m},
{f, g},
{d, g},
{g, f},
{m, f},
{f, g},
{m, d},
{g, f},
{f, g},
{d, f},
{m, f},
{m, d},
{d, m},
{m, g},
{f, d},
{f, d},
{m, g},
{m, d}
];
num_pairs = 3;
player1 = [18, 16, 11];
player2 = [20, 8, 10];
